outputs/case_207.model.txt
involves_large_amount_fund_transfer = False
central_bank_license_obtained = True
obstacle_causes_stop = True
user_notified = True
authority_notified = True
central_bank_notified = True
justified_reason = False
backup_measures_taken_if_needed = True
cross_bank_network_operational = True
network_system_operational = True
credit_data_service_permitted = True
fund_transfer_service_permitted = True
obstacle_detected = True
cross_bank_network_obstacle_handled = True
cross_bank_network_obstacle_notification = True
complies_with_authorized_orders = True
system_and_equipment_maintained = True
obstacle_resolved_quickly = True
business_includes_automation_consulting = True
business_scope_valid = True
credit_data_service_license_obtained = True
penalty = False
complies_with_bank_law = True
business_includes_fund_clearing = True
fund_transfer_service_license_obtained = True
business_includes_other_approved = True
business_includes_disaster_backup = True
legal_compliance = True
business_includes_info_transmission = True
large_amount_fund_transfer_permitted = True